r=4; % radius of tesselated grid (const)
n=60; % how many numbers (const)
t=5; % number of tunnels (variable, adjust second array declaration)

snake = array2d(1..n,1..3,[
 %x,y,z, %n
  -3,4,-1, %xyz of 1
-2,4,-2, %xyz of 2
-1,4,-3, %xyz of 3
0,4,-4, %xyz of 4
1,3,-4, %xyz of 5
1,2,-3, %xyz of 6
0,2,-2, %xyz of 7
0,3,-3, %xyz of 8
-1,3,-2, %xyz of 9
-1,2,-1, %xyz of 10
0,1,-1, %xyz of 11
-1,1,0, %xyz of 12
-2,2,0, %xyz of 13
-2,3,-1, %xyz of 14
-3,3,0, %xyz of 15
-4,4,0, %xyz of 16
-4,3,1, %xyz of 17
-3,2,1, %xyz of 18
-3,1,2, %xyz of 19
-4,2,2, %xyz of 20
-4,1,3, %xyz of 21
-3,0,3, %xyz of 22
-4,0,4, %xyz of 23
-3,-1,4, %xyz of 24
-2,-2,4, %xyz of 25
-2,-1,3, %xyz of 26
-1,-2,3, %xyz of 27
-1,-3,4, %xyz of 28
0,-4,4, %xyz of 29
1,-4,3, %xyz of 30
1,-3,2, %xyz of 31
0,-3,3, %xyz of 32
0,-2,2, %xyz of 33
-1,-1,2, %xyz of 34
-2,0,2, %xyz of 35
-2,1,1, %xyz of 36
-1,0,1, %xyz of 37
0,-1,1, %xyz of 38
1,-1,0, %xyz of 39
1,-2,1, %xyz of 40
2,-3,1, %xyz of 41
2,-4,2, %xyz of 42
3,-4,1, %xyz of 43
4,-4,0, %xyz of 44
4,-3,-1, %xyz of 45
3,-2,-1, %xyz of 46
4,-2,-2, %xyz of 47
3,-1,-2, %xyz of 48
2,0,-2, %xyz of 49
3,0,-3, %xyz of 50
4,-1,-3, %xyz of 51
4,0,-4, %xyz of 52
3,1,-4, %xyz of 53
2,2,-4, %xyz of 54
2,1,-3, %xyz of 55
1,1,-2, %xyz of 56
1,0,-1, %xyz of 57
2,-1,-1, %xyz of 58
2,-2,0, %xyz of 59
3,-3,0 %xyz of 60
]);

tunnels = array3d(1..t,1..2,1..3,[
    0,_,1, %coorinate couple for a tunnel
    1,_,0,
    
    4,0,_,
    4,-1,_,
    
    2,1,_,
    2,2,_,
    
    -1,2,_,
    -1,3,_,
    
    _,-1,3,
    _,-2,3

]);